c 
c U(n,d) graph
c graph gen seed     : 2478
c number of vertices : 20
c max number of edges: 400
c Euclidean distance : 0.600000
c data structure     : dense
c
c           Graph Stats
c number of vertices  : 20
c nonisolated vertices: 20
c number of edges     : 105
c edge density        : 0.552632
c max degree          : 16
c avg degree          : 10.50
c min degree          : 3
p col 20 105
e 1 3
e 1 4
e 1 6
e 1 7
e 1 9
e 1 10
e 1 11
e 1 13
e 1 14
e 1 15
e 1 16
e 1 18
e 2 7
e 2 10
e 2 13
e 3 4
e 3 7
e 3 9
e 3 10
e 3 13
e 3 14
e 3 15
e 3 16
e 3 18
e 4 5
e 4 6
e 4 9
e 4 11
e 4 14
e 4 15
e 4 16
e 4 17
e 4 18
e 5 6
e 5 8
e 5 11
e 5 12
e 5 14
e 5 15
e 5 17
e 5 19
e 5 20
e 6 8
e 6 9
e 6 11
e 6 14
e 6 15
e 6 16
e 6 17
e 6 18
e 6 19
e 6 20
e 7 9
e 7 10
e 7 13
e 7 16
e 7 18
e 8 12
e 8 14
e 8 17
e 8 19
e 8 20
e 9 10
e 9 11
e 9 13
e 9 14
e 9 15
e 9 16
e 9 18
e 10 13
e 10 14
e 10 15
e 10 16
e 10 18
e 10 20
e 11 14
e 11 15
e 11 16
e 11 17
e 11 18
e 11 19
e 11 20
e 12 17
e 12 19
e 12 20
e 13 14
e 13 15
e 13 16
e 13 18
e 13 20
e 14 15
e 14 16
e 14 17
e 14 18
e 14 19
e 14 20
e 15 16
e 15 17
e 15 18
e 15 19
e 15 20
e 16 18
e 17 19
e 17 20
e 19 20
